# Objective value = 36.99999999989794
xobj 36.99999999989794
x0_r1 6.237678694962293e-13
x1_r1 -0.0
x2_r1 1.0391042410198836e-13
x3_r1 1.0391042494902131e-13
y0_r1 -0.0
y1_r1 -0.0
y2_r1 6.239343961736595e-13
y3_r1 -0.0
SH0_r1 1.0391042410198836e-13
SL0_r1 -0.0
x4_r1 0.0
x5_r1 -3.4456754466273727e-13
x6_r1 0.0
x7_r1 0.0
y4_r1 3.4456754805086906e-13
y5_r1 -3.7302322689058975e-13
y6_r1 -0.0
y7_r1 6.403462016277978e-14
SH1_r1 -0.0
SL1_r1 -0.0
x8_r1 1.4785403261961816e-13
x9_r1 -0.0
x10_r1 1.9693556342430772e-13
x11_r1 1.9704658911490203e-13
y8_r1 -3.446785669651998e-13
y9_r1 1.5952073375343628e-12
y10_r1 9.35818330921774e-13
y11_r1 8.36322981354054e-13
SH2_r1 1.9699107457553898e-13
SL2_r1 -0.0
x12_r1 -1.9271786857316675e-11
x13_r1 -5.069224011909623e-12
x14_r1 -1.843981808609743e-11
x15_r1 -8.940603438796144e-12
y12_r1 -1.2254138567584227e-11
y13_r1 1.0545526583048692e-12
y14_r1 -0.0
y15_r1 -0.0
SH3_r1 -8.941054466899898e-12
SL3_r1 -0.0
x16_r1 -0.0
x17_r1 1.0515818562608324e-12
x18_r1 -0.0
x19_r1 -0.0
y16_r1 0.0
y17_r1 0.0
y18_r1 -1.0515818562608324e-12
y19_r1 -2.103163712521665e-12
SH4_r1 -0.0
SL4_r1 -0.0
x20_r1 -0.0
x21_r1 -0.0
x22_r1 0.0
x23_r1 -0.0
y20_r1 0.0
y21_r1 0.0
y22_r1 -0.0
y23_r1 -0.0
SH5_r1 -0.0
SL5_r1 -0.0
x24_r1 0.0
x25_r1 0.0
x26_r1 -3.490354638885189e-12
x27_r1 0.0
y24_r1 0.0
y25_r1 0.0
y26_r1 -2.7922392994766607e-12
y27_r1 -0.0
SH6_r1 -0.0
SL6_r1 -0.0
x28_r1 -0.0
x29_r1 -0.0
x30_r1 -7.860938357635025e-12
x31_r1 -0.0
y28_r1 -2.619363313895824e-12
y29_r1 0.0
y30_r1 -0.0
y31_r1 -1.1788777697357023e-11
SH7_r1 -2.6193841305775355e-12
SL7_r1 -0.0
x32_r1 -1.6031916733830892e-12
x33_r1 -6.43097652225106e-11
x34_r1 -4.0242258039346196e-12
x35_r1 -6.669822283182896e-11
y32_r1 -2.3874029109974965e-12
y33_r1 -0.0
y34_r1 8.519246980499655e-13
y35_r1 -0.0
SH8_r1 0.0
SL8_r1 -0.0
x36_r1 -0.0
x37_r1 -0.0
x38_r1 -0.0
x39_r1 5.246206626671052e-12
y36_r1 5.5874949849224476e-12
y37_r1 1.4609147225286279e-12
y38_r1 3.409136664509144e-13
y39_r1 0.0
SH9_r1 0.0
SL9_r1 -0.0
x40_r1 -0.0
x41_r1 -0.0
x42_r1 -0.0
x43_r1 -0.0
y40_r1 -0.0
y41_r1 -0.0
y42_r1 -0.0
y43_r1 -0.0
SH10_r1 -0.0
SL10_r1 -0.0
x44_r1 -0.0
x45_r1 -0.0
x46_r1 -2.1085355683680973e-12
x47_r1 -0.0
y44_r1 -0.0
y45_r1 4.271472064942827e-12
y46_r1 -7.717715355681776e-13
y47_r1 -7.717715355681776e-13
SH11_r1 -7.717715355681776e-13
SL11_r1 -0.0
x48_r1 -0.0
x49_r1 -0.0
x50_r1 4.795219776809745e-12
x51_r1 4.795455699202478e-12
y48_r1 -0.0
y49_r1 -0.0
y50_r1 -0.0
y51_r1 4.803487661817234e-12
SH12_r1 4.803487661817234e-12
SL12_r1 -0.0
x52_r1 -0.0
x53_r1 3.026376543453987e-11
x54_r1 2.642159526851872e-11
x55_r1 1.1413321703072866e-10
y52_r1 -0.0
y53_r1 -0.0
y54_r1 5.744842850096839e-11
y55_r1 1.1542329951248851e-11
SH13_r1 1.154208015106831e-11
SL13_r1 -0.0
x56_r1 -0.0
x57_r1 -0.0
x58_r1 1.8500371590582376e-12
x59_r1 -6.7395292397255755e-12
y56_r1 -2.1274762008506587e-12
y57_r1 -1.3029609861750849e-11
y58_r1 -2.419614964160207e-11
y59_r1 -6.739418217423113e-12
SH14_r1 -6.739445972998729e-12
SL14_r1 -0.0
x60_r1 1.0
x61_r1 1.0
x62_r1 1.0
x63_r1 0.9999999999817288
y60_r1 -0.0
y61_r1 -0.0
y62_r1 5.744842850096839e-11
y63_r1 0.9999999999817297
SH15_r1 0.999999999981728
SL15_r1 -0.0
y0_r2 -0.0
y1_r2 1.531811732579519e-11
y2_r2 -0.0
y3_r2 4.440892098500626e-16
SH0_r2 -0.0
SL0_r2 -0.0
y4_r2 -0.0
y5_r2 1.531811732579519e-11
y6_r2 0.0
y7_r2 -3.1565620614310702e-12
SH1_r2 -3.1566869615213405e-12
SL1_r2 -8.389132270802957e-12
y8_r2 -0.0
y9_r2 1.531811732579519e-11
y10_r2 -4.3023579223893185e-14
y11_r2 3.1569228839140734e-12
SH2_r2 4.932677638742888e-12
SL2_r2 -1.1507015392625553e-11
y12_r2 -0.0
y13_r2 1.531811732579519e-11
y14_r2 0.0
y15_r2 -0.0
SH3_r2 8.510126875112614e-13
SL3_r2 -0.0
y16_r2 -0.0
y17_r2 2.220446049250313e-16
y18_r2 -1.6829755904862465e-13
y19_r2 0.0
SH4_r2 -0.0
SL4_r2 -0.0
y20_r2 -0.0
y21_r2 -0.0
y22_r2 -0.0
y23_r2 0.0
SH5_r2 -0.0
SL5_r2 -0.0
y24_r2 -0.0
y25_r2 -0.0
y26_r2 -0.0
y27_r2 -6.981082378842984e-13
SH6_r2 -1.9162449405030202e-13
SL6_r2 -0.0
y28_r2 -0.0
y29_r2 0.0
y30_r2 -0.0
y31_r2 -0.0
SH7_r2 0.0
SL7_r2 -0.0
y32_r2 -0.0
y33_r2 -0.0
y34_r2 0.0
y35_r2 0.0
SH8_r2 -0.0
SL8_r2 -0.0
y36_r2 -0.0
y37_r2 -3.6086869119154744e-13
y38_r2 3.843793393385614e-12
y39_r2 -0.0
SH9_r2 -0.0
SL9_r2 -0.0
y40_r2 -0.0
y41_r2 3.6086869119154744e-13
y42_r2 6.310881315143083e-13
y43_r2 0.0
SH10_r2 -0.0
SL10_r2 -0.0
y44_r2 -0.0
y45_r2 -8.255088558122839e-13
y46_r2 0.0
y47_r2 -0.0
SH11_r2 -0.0
SL11_r2 -1.1943866747954161e-10
y48_r2 -0.0
y49_r2 4.1904968942551787e-13
y50_r2 -1.6099436237274056e-12
y51_r2 -0.0
SH12_r2 0.0
SL12_r2 -0.0
y52_r2 -4.635229700067356e-12
y53_r2 -9.626265781129302e-13
y54_r2 -0.0
y55_r2 -4.520473607631449e-12
SH13_r2 -4.520473607631449e-12
SL13_r2 -0.0
y56_r2 -0.0
y57_r2 7.718270467194088e-13
y58_r2 -0.0
y59_r2 0.0
SH14_r2 0.0
SL14_r2 -0.0
y60_r2 0.9999999999968185
y61_r2 7.717715355681776e-13
y62_r2 8.36348521302674e-14
y63_r2 0.9999999999935688
SH15_r2 1.0
SL15_r2 1.2620113923440171e-11
y0_r3 -0.0
y1_r3 -0.0
y2_r3 -0.0
y3_r3 -0.0
SH0_r3 -0.0
SL0_r3 -0.0
y4_r3 -0.0
y5_r3 -0.0
y6_r3 -0.0
y7_r3 -0.0
SH1_r3 -0.0
SL1_r3 -0.0
y8_r3 -0.0
y9_r3 -0.0
y10_r3 -0.0
y11_r3 -0.0
SH2_r3 -0.0
SL2_r3 -0.0
y12_r3 1.0
y13_r3 0.0
y14_r3 -0.0
y15_r3 1.0
SH3_r3 1.0
SL3_r3 4.742498850388355e-12
y16_r3 9.190825964872085e-11
y17_r3 -1.030942378923874e-12
y18_r3 -0.0
y19_r3 -0.0
SH4_r3 1.531811732579519e-11
SL4_r3 -0.0
y20_r3 1.1102230246251565e-16
y21_r3 -0.0
y22_r3 0.0
y23_r3 -0.0
SH5_r3 1.1102230246251565e-16
SL5_r3 1.1102230246251565e-16
y24_r3 -0.0
y25_r3 1.0309978917691712e-12
y26_r3 -0.0
y27_r3 -0.0
SH6_r3 -0.0
SL6_r3 -0.0
y28_r3 -1.48864818767054e-10
y29_r3 9.257015880189724e-12
y30_r3 0.0
y31_r3 -0.0
SH7_r3 7.717715355681776e-13
SL7_r3 -0.0
y32_r3 4.061254769101622e-14
y33_r3 -0.0
y34_r3 -1.021405182655144e-14
y35_r3 -0.0
SH8_r3 -0.0
SL8_r3 0.0
y36_r3 -5.81727943810631e-12
y37_r3 1.845579288353716e-11
y38_r3 -0.0
y39_r3 -0.0
SH9_r3 -2.7531071904651414e-12
SL9_r3 -0.0
y40_r3 5.74858509318904e-12
y41_r3 1.4819768947172546e-12
y42_r3 5.4511950509095186e-14
y43_r3 -0.0
SH10_r3 -0.0
SL10_r3 -0.0
y44_r3 -5.24946446446399e-13
y45_r3 -2.841608526715951e-11
y46_r3 -0.0
y47_r3 -0.0
SH11_r3 -0.0
SL11_r3 -0.0
y48_r3 -1.2335189402030988e-11
y49_r3 6.207562784112108e-12
y50_r3 -0.0
y51_r3 3.0508342163323987e-12
SH12_r3 3.0508342163323987e-12
SL12_r3 -0.0
y52_r3 3.630567363670928e-12
y53_r3 1.9343631056878636e-11
y54_r3 -4.0652099025487614e-13
y55_r3 8.311420670627234e-13
SH13_r3 8.311420670627234e-13
SL13_r3 -0.0
y56_r3 -1.1102230246251565e-16
y57_r3 6.966355592039742e-11
y58_r3 6.840701389819803e-15
y59_r3 -0.0
SH14_r3 0.0
SL14_r3 -0.0
y60_r3 0.999999999999999
y61_r3 -0.0
y62_r3 -0.0
y63_r3 0.9999999999890502
SH15_r3 0.9999999999890504
SL15_r3 -0.0
y0_r4 0.9999999999987442
y1_r4 0.0
y2_r4 1.2566715788635274e-12
y3_r4 1.0
SH0_r4 1.0
SL0_r4 -0.0
y4_r4 6.182544331091028e-12
y5_r4 0.0
y6_r4 -6.217221182325261e-12
y7_r4 -2.2794231779865726e-12
SH1_r4 -6.21716567117403e-12
SL1_r4 -0.0
y8_r4 -6.179879741621819e-12
y9_r4 -0.0
y10_r4 5.87596535013904e-12
y11_r4 -9.305849802088107e-14
SH2_r4 -9.307931512610927e-14
SL2_r4 -0.0
y12_r4 0.9999999999987442
y13_r4 0.0
y14_r4 1.551482466805032e-13
y15_r4 1.0000000000072768
SH3_r4 1.0000000000071774
SL3_r4 -0.0
y16_r4 -0.0
y17_r4 0.0
y18_r4 0.0
y19_r4 -0.0
SH4_r4 0.0
SL4_r4 -0.0
y20_r4 -0.0
y21_r4 1.9536746047701167e-12
y22_r4 -0.0
y23_r4 -0.0
SH5_r4 2.220446049250313e-16
SL5_r4 -8.226933923262902e-12
y24_r4 -0.0
y25_r4 -1.845512672261733e-11
y26_r4 -0.0
y27_r4 0.0
SH6_r4 -0.0
SL6_r4 1.1441603164853622e-11
y28_r4 -0.0
y29_r4 4.1111470402022815e-11
y30_r4 0.0
y31_r4 -0.0
SH7_r4 1.7281972077357044e-11
SL7_r4 -0.0
y32_r4 -0.0
y33_r4 -0.0
y34_r4 -1.255832540780344e-12
y35_r4 0.0
SH8_r4 -0.0
SL8_r4 -0.0
y36_r4 -0.0
y37_r4 -0.0
y38_r4 -0.0
y39_r4 -0.0
SH9_r4 0.0
SL9_r4 -0.0
y40_r4 -1.0158540675320182e-14
y41_r4 -1.3988810110276972e-13
y42_r4 -0.0
y43_r4 -0.0
SH10_r4 -0.0
SL10_r4 -0.0
y44_r4 -0.0
y45_r4 1.9895196601282805e-13
y46_r4 -0.0
y47_r4 -0.0
SH11_r4 -0.0
SL11_r4 -0.0
y48_r4 1.0
y49_r4 -4.440892098500626e-16
y50_r4 -0.0
y51_r4 1.0
SH12_r4 1.0
SL12_r4 -0.0
y52_r4 -0.0
y53_r4 -0.0
y54_r4 -0.0
y55_r4 -0.0
SH13_r4 -0.0
SL13_r4 -0.0
y56_r4 -0.0
y57_r4 -0.0
y58_r4 -0.0
y59_r4 -0.0
SH14_r4 -0.0
SL14_r4 -0.0
y60_r4 0.999999999994537
y61_r4 -4.440892098500626e-16
y62_r4 0.0
y63_r4 1.0
SH15_r4 1.0
SL15_r4 5.764209896614962e-12
y0_r5 -0.0
y1_r5 1.000000000017674
y2_r5 -0.0
y3_r5 -0.0
SH0_r5 0.9999999999987442
SL0_r5 -0.0
y4_r5 -0.0
y5_r5 -0.0
y6_r5 -0.0
y7_r5 -0.0
SH1_r5 -0.0
SL1_r5 -0.0
y8_r5 -0.0
y9_r5 0.0
y10_r5 -0.0
y11_r5 -1.049160758270773e-14
SH2_r5 -0.0
SL2_r5 -0.0
y12_r5 0.0
y13_r5 1.0
y14_r5 -0.0
y15_r5 -0.0
SH3_r5 1.0
SL3_r5 0.0
y16_r5 -0.0
y17_r5 -0.0
y18_r5 -0.0
y19_r5 -0.0
SH4_r5 -1.1102230246251565e-16
SL4_r5 -0.0
y20_r5 1.6503450515903406e-11
y21_r5 0.0
y22_r5 -0.0
y23_r5 0.0
SH5_r5 -0.0
SL5_r5 -0.0
y24_r5 -0.0
y25_r5 -1.4297452111122766e-12
y26_r5 -0.0
y27_r5 -3.3306690738754696e-16
SH6_r5 -0.0
SL6_r5 -0.0
y28_r5 1.6503450515903406e-11
y29_r5 -0.0
y30_r5 -0.0
y31_r5 -0.0
SH7_r5 -0.0
SL7_r5 -0.0
y32_r5 0.0
y33_r5 0.0
y34_r5 -5.551115123125783e-17
y35_r5 -2.0001346789521677e-12
SH8_r5 1.2566715788635274e-12
SL8_r5 -0.0
y36_r5 1.8185171021325524e-13
y37_r5 0.0
y38_r5 -0.0
y39_r5 0.0
SH9_r5 -0.0
SL9_r5 -1.304512053934559e-15
y40_r5 9.992007221626409e-15
y41_r5 0.0
y42_r5 2.220446049250313e-16
y43_r5 -5.971918031788559e-13
SH10_r5 -0.0
SL10_r5 -0.0
y44_r5 -0.0
y45_r5 -0.0
y46_r5 0.0
y47_r5 0.0
SH11_r5 -0.0
SL11_r5 0.0
y48_r5 -1.315499792431396e-12
y49_r5 1.0000000000343559
y50_r5 -8.479132505989138e-12
y51_r5 -7.1789658996172235e-12
SH12_r5 1.0
SL12_r5 -0.0
y52_r5 -0.0
y53_r5 -4.440892098500626e-16
y54_r5 -0.0
y55_r5 -0.0
SH13_r5 -0.0
SL13_r5 -0.0
y56_r5 -0.0
y57_r5 -0.0
y58_r5 -1.5720758028692217e-12
y59_r5 -0.0
SH14_r5 0.0
SL14_r5 -0.0
y60_r5 -9.636735853746359e-14
y61_r5 1.0000000000177742
y62_r5 -8.479132505989138e-12
y63_r5 -7.278834989707963e-12
SH15_r5 1.0
SL15_r5 -1.0496123136869253e-11
y0_r6 -0.0
y1_r6 -0.0
y2_r6 -0.0
y3_r6 -0.0
SH0_r6 0.0
SL0_r6 -0.0
y4_r6 -0.0
y5_r6 -2.1107930941316466e-12
y6_r6 -0.0
y7_r6 -2.4688048875165623e-11
SH1_r6 -0.0
SL1_r6 -0.0
y8_r6 -0.0
y9_r6 -0.0
y10_r6 -0.0
y11_r6 -0.0
SH2_r6 0.0
SL2_r6 -0.0
y12_r6 -0.0
y13_r6 -7.58891560703745e-12
y14_r6 -0.0
y15_r6 -0.0
SH3_r6 -9.658940314238862e-14
SL3_r6 -0.0
y16_r6 -0.0
y17_r6 1.000000000017675
y18_r6 -1.767669231236409e-11
y19_r6 -1.767491942497164e-11
SH4_r6 1.0
SL4_r6 -0.0
y20_r6 -0.0
y21_r6 -1.4301893003221267e-12
y22_r6 0.0
y23_r6 -0.0
SH5_r6 -0.0
SL5_r6 -0.0
y24_r6 -0.0
y25_r6 -0.0
y26_r6 0.0
y27_r6 -0.0
SH6_r6 -0.0
SL6_r6 -0.0
y28_r6 4.1722715720293065e-13
y29_r6 1.0000000000213274
y30_r6 -1.767669578181104e-11
y31_r6 -1.81362255531758e-11
SH7_r6 1.0000000000177747
SL7_r6 -0.0
y32_r6 -0.0
y33_r6 -0.0
y34_r6 -0.0
y35_r6 -0.0
SH8_r6 -0.0
SL8_r6 -0.0
y36_r6 -0.0
y37_r6 -5.161648886087278e-12
y38_r6 0.0
y39_r6 -0.0
SH9_r6 -0.0
SL9_r6 -0.0
y40_r6 -0.0
y41_r6 -0.0
y42_r6 -2.220446049250313e-16
y43_r6 -0.0
SH10_r6 -5.551115123125783e-17
SL10_r6 -0.0
y44_r6 -0.0
y45_r6 -5.5706550483591855e-12
y46_r6 -0.0
y47_r6 -0.0
SH11_r6 -8.479132505989138e-12
SL11_r6 -0.0
y48_r6 0.0
y49_r6 1.1102230246251565e-16
y50_r6 -1.3923584507580244e-13
y51_r6 -0.0
SH12_r6 -1.3923584507580244e-13
SL12_r6 -0.0
y52_r6 -0.0
y53_r6 -0.0
y54_r6 -0.0
y55_r6 -0.0
SH13_r6 -0.0
SL13_r6 -0.0
y56_r6 -0.0
y57_r6 -0.0
y58_r6 4.900134083158391e-13
y59_r6 -0.0
SH14_r6 -0.0
SL14_r6 -0.0
y60_r6 1.1102230246251565e-16
y61_r6 9.419000391364334e-12
y62_r6 2.745660953722689e-13
y63_r6 -0.0
SH15_r6 -0.0
SL15_r6 -0.0
y0_r7 -0.0
y1_r7 -0.0
y2_r7 -0.0
y3_r7 -0.0
SH0_r7 -0.0
SL0_r7 -0.0
y4_r7 -7.174816296640074e-15
y5_r7 -7.732703366514215e-14
y6_r7 -0.0
y7_r7 -0.0
SH1_r7 1.2750714088651834e-13
SL1_r7 -0.0
y8_r7 -0.0
y9_r7 -0.0
y10_r7 -0.0
y11_r7 -0.0
SH2_r7 -0.0
SL2_r7 -0.0
y12_r7 -1.3322676295501878e-15
y13_r7 -0.0
y14_r7 -1.7763568394002505e-15
y15_r7 -0.0
SH3_r7 1.1102230246251565e-16
SL3_r7 -0.0
y16_r7 -0.0
y17_r7 -2.2616408745790295e-11
y18_r7 -0.0
y19_r7 -8.146719410184744e-12
SH4_r7 -8.146275320974894e-12
SL4_r7 -0.0
y20_r7 7.221619853577212e-12
y21_r7 1.0000000000060667
y22_r7 5.11602457167553e-13
y23_r7 4.357670588205062e-12
SH5_r7 1.0000000000182312
SL5_r7 9.375611398354522e-12
y24_r7 -0.0
y25_r7 -0.0
y26_r7 -0.0
y27_r7 -0.0
SH6_r7 -1.4309664564393643e-12
SL6_r7 -0.0
y28_r7 -1.0120793092482927e-12
y29_r7 -0.0
y30_r7 -0.0
y31_r7 -0.0
SH7_r7 4.440892098500626e-16
SL7_r7 -0.0
y32_r7 -0.0
y33_r7 -0.0
y34_r7 -0.0
y35_r7 -0.0
SH8_r7 -0.0
SL8_r7 -0.0
y36_r7 -1.833820208631444e-12
y37_r7 -1.5812607335082236e-11
y38_r7 0.0
y39_r7 -0.0
SH9_r7 -1.767580760339134e-11
SL9_r7 -0.0
y40_r7 -0.0
y41_r7 -1.3669814509881185e-11
y42_r7 -0.0
y43_r7 -0.0
SH10_r7 0.0
SL10_r7 -0.0
y44_r7 -2.4413656686236985e-12
y45_r7 -0.0
y46_r7 -0.0
y47_r7 -0.0
SH11_r7 -0.0
SL11_r7 -0.0
y48_r7 -6.274299321404425e-11
y49_r7 -0.0
y50_r7 -0.0
y51_r7 -0.0
SH12_r7 -6.3782397618657556e-12
SL12_r7 -0.0
y52_r7 0.0
y53_r7 -1.7137210488357695e-11
y54_r7 -0.0
y55_r7 0.0
SH13_r7 -1.767491942497164e-11
SL13_r7 -0.0
y56_r7 -0.0
y57_r7 -0.0
y58_r7 -0.0
y59_r7 -0.0
SH14_r7 -0.0
SL14_r7 -0.0
y60_r7 -0.0
y61_r7 -9.657816713724348e-11
y62_r7 -0.0
y63_r7 -0.0
SH15_r7 -0.0
SL15_r7 -0.0
y0_r8 -0.0
y1_r8 4.1772141301521515e-15
y2_r8 -0.0
y3_r8 -0.0
SH0_r8 -0.0
SL0_r8 -0.0
y4_r8 2.5279456848023502e-12
y5_r8 -3.910118627301645e-12
y6_r8 -0.0
y7_r8 0.0
SH1_r8 -0.0
SL1_r8 -0.0
y8_r8 4.583662343158907e-12
y9_r8 -1.833820208631444e-12
y10_r8 0.0
y11_r8 -0.0
SH2_r8 -0.0
SL2_r8 -0.0
y12_r8 3.1360234408959486e-11
y13_r8 -0.0
y14_r8 -0.0
y15_r8 -0.0
SH3_r8 -0.0
SL3_r8 -0.0
y16_r8 0.0
y17_r8 8.077725649596577e-11
y18_r8 7.721601136267964e-14
y19_r8 -0.0
SH4_r8 0.0
SL4_r8 -0.0
y20_r8 -0.0
y21_r8 1.0000000000223082
y22_r8 -0.0
y23_r8 1.000000000009558
SH5_r8 1.0000000000060667
SL5_r8 -0.0
y24_r8 -1.2109787261607944e-11
y25_r8 -0.0
y26_r8 -0.0
y27_r8 -0.0
SH6_r8 -4.450450113016826e-12
SL6_r8 -0.0
y28_r8 -0.0
y29_r8 5.3301871608461386e-11
y30_r8 -0.0
y31_r8 -0.0
SH7_r8 1.7137432532962617e-11
SL7_r8 -0.0
y32_r8 -0.0
y33_r8 0.0
y34_r8 0.0
y35_r8 0.0
SH8_r8 0.0
SL8_r8 -0.0
y36_r8 8.507882232138549e-14
y37_r8 5.551115123125783e-17
y38_r8 -0.0
y39_r8 0.0
SH9_r8 -0.0
SL9_r8 -0.0
y40_r8 -5.384097816074242e-13
y41_r8 -0.0
y42_r8 0.0
y43_r8 -0.0
SH10_r8 -0.0
SL10_r8 -0.0
y44_r8 -3.722833281266067e-14
y45_r8 1.982237476919343e-12
y46_r8 -0.0
y47_r8 -0.0
SH11_r8 -0.0
SL11_r8 -0.0
y48_r8 3.71795920839405e-12
y49_r8 -0.0
y50_r8 -1.056159413139961e-12
y51_r8 9.851038931190408e-12
SH12_r8 1.975591797925808e-12
SL12_r8 -0.0
y52_r8 4.680628015446915e-12
y53_r8 1.5420664745136037e-11
y54_r8 -1.3703749570274277e-11
y55_r8 0.0
SH13_r8 -0.0
SL13_r8 2.5896160216198894e-12
y56_r8 1.4267746244409433e-11
y57_r8 -0.0
y58_r8 -1.3703749570274277e-11
y59_r8 -0.0
SH14_r8 -0.0
SL14_r8 0.0
y60_r8 -6.999122266938868e-12
y61_r8 -6.999122266938868e-12
y62_r8 -0.0
y63_r8 -0.0
SH15_r8 -0.0
SL15_r8 -0.0
y0_r9 -0.0
y1_r9 -0.0
y2_r9 -0.0
y3_r9 5.011943380701055e-11
SH0_r9 2.5280011959535815e-12
SL0_r9 -0.0
y4_r9 -2.1590979945891315e-11
y5_r9 -0.0
y6_r9 -9.518973867434024e-12
y7_r9 -0.0
SH1_r9 0.0
SL1_r9 -0.0
y8_r9 0.0
y9_r9 -0.0
y10_r9 -0.0
y11_r9 -0.0
SH2_r9 0.0
SL2_r9 -0.0
y12_r9 -0.0
y13_r9 -0.0
y14_r9 -0.0
y15_r9 -0.0
SH3_r9 -0.0
SL3_r9 -7.553414756773408e-12
y16_r9 -0.0
y17_r9 -3.622102617839573e-15
y18_r9 -5.80218963444348e-12
y19_r9 -0.0
SH4_r9 -0.0
SL4_r9 -0.0
y20_r9 -0.0
y21_r9 0.9999999999648185
y22_r9 5.330131649694908e-11
y23_r9 0.9999999998659196
SH5_r9 1.0
SL5_r9 -0.0
y24_r9 -5.551115123125783e-17
y25_r9 -0.0
y26_r9 -0.0
y27_r9 -0.0
SH6_r9 5.11602457167553e-13
SL6_r9 -0.0
y28_r9 -0.0
y29_r9 2.0829893365714724e-11
y30_r9 -0.0
y31_r9 1.7648424388561068e-11
SH7_r9 1.5420442700531112e-11
SL7_r9 -0.0
y32_r9 -0.0
y33_r9 0.0
y34_r9 -0.0
y35_r9 -0.0
SH8_r9 0.0
SL8_r9 -0.0
y36_r9 -1.559863349598345e-14
y37_r9 -0.0
y38_r9 -0.0
y39_r9 -0.0
SH9_r9 -3.566591466608315e-15
SL9_r9 -0.0
y40_r9 0.0
y41_r9 -0.0
y42_r9 -0.0
y43_r9 -0.0
SH10_r9 0.0
SL10_r9 -0.0
y44_r9 4.0055287923520854e-11
y45_r9 7.87960098169534e-12
y46_r9 -0.0
y47_r9 -0.0
SH11_r9 -1.3703749570274277e-11
SL11_r9 -0.0
y48_r9 0.0
y49_r9 -0.0
y50_r9 0.0
y51_r9 -0.0
SH12_r9 -0.0
SL12_r9 -0.0
y52_r9 1.0
y53_r9 -0.0
y54_r9 -0.0
y55_r9 1.0
SH13_r9 1.0
SL13_r9 1.0
y56_r9 0.0
y57_r9 -0.0
y58_r9 -0.0
y59_r9 -0.0
SH14_r9 -0.0
SL14_r9 -0.0
y60_r9 9.888510844651441e-12
y61_r9 -0.0
y62_r9 -0.0
y63_r9 -0.0
SH15_r9 -0.0
SL15_r9 -0.0
